40
     8    97    86    87    82    81    86    93    65     3    53    72    92     8    22    81    24    92     8    83    53     6     1    40    96    54    73    22   100    92    71    99    40    31    21    45    19    33    28    37
    10    10     2    10     4     7     5     9     5     8     8    10     8     9     6     3     8     8     9     6     8     1     1     9     9     1     8     4    10     4     1     1    10     5     2     4     5     3     9     6
   378   913     0     0   534     0    91     0     0   461     0   191     0    48   690   945     0     0     0     0     0   140     0     0   261   719   927     0     0     0     0   881   241     0     0     0     0     0     0   675
